
Gurobi 9.0.2 (win64) logging started Mon Oct 25 10:48:33 2021

Changed value of parameter LogFile to logs\CRVRP_10-3-7-100_1_1.LOG
   Prev: logs\CRVRP_10-3-7-100_1_0.LOG  Default: 
Changed value of parameter Seed to 1078166261
   Prev: 1341356808  Min: 0  Max: 2000000000  Default: 0
Parameter Threads unchanged
   Value: 2  Min: 0  Max: 1024  Default: 0
Parameter TimeLimit unchanged
   Value: 600.0  Min: 0.0  Max: inf  Default: inf
Parameter Symmetry unchanged
   Value: 2  Min: -1  Max: 2  Default: -1
Parameter Cuts unchanged
   Value: 2  Min: -1  Max: 3  Default: -1
Parameter PreDepRow unchanged
   Value: 1  Min: -1  Max: 1  Default: -1
Parameter ScaleFlag unchanged
   Value: 1  Min: -1  Max: 3  Default: -1
Parameter NormAdjust unchanged
   Value: 0  Min: -1  Max: 3  Default: -1
Gurobi Optimizer version 9.0.2 build v9.0.2rc0 (win64)
Optimize a model with 6903 rows, 3980 columns and 27871 nonzeros
Model fingerprint: 0x7e16970e
Variable types: 72 continuous, 3908 integer (2612 binary)
Coefficient statistics:
  Matrix range     [7e-01, 1e+05]
  Objective range  [1e+00, 1e+00]
  Bounds range     [1e+00, 1e+04]
  RHS range        [1e+00, 1e+05]
Presolve removed 0 rows and 1054 columns
Presolve time: 0.00s

Explored 0 nodes (0 simplex iterations) in 0.01 seconds
Thread count was 1 (of 4 available processors)

Solution count 0

Model is infeasible
Best objective -, best bound -, gap -

IIS computed: 1 constraints, 1 bounds
IIS runtime: 0.00 seconds
Discarded solution information

Gurobi 9.0.2 (win64) logging started Mon Oct 25 10:49:09 2021

Changed value of parameter LogFile to logs\CRVRP_10-3-7-100_1_1.LOG
   Prev: logs\CRVRP_10-3-7-100_1_0.LOG  Default: 
Changed value of parameter Seed to 294791388
   Prev: 1971407539  Min: 0  Max: 2000000000  Default: 0
Parameter Threads unchanged
   Value: 2  Min: 0  Max: 1024  Default: 0
Parameter TimeLimit unchanged
   Value: 600.0  Min: 0.0  Max: inf  Default: inf
Parameter Symmetry unchanged
   Value: 2  Min: -1  Max: 2  Default: -1
Parameter Cuts unchanged
   Value: 2  Min: -1  Max: 3  Default: -1
Parameter PreDepRow unchanged
   Value: 1  Min: -1  Max: 1  Default: -1
Parameter ScaleFlag unchanged
   Value: 1  Min: -1  Max: 3  Default: -1
Parameter NormAdjust unchanged
   Value: 0  Min: -1  Max: 3  Default: -1
Gurobi Optimizer version 9.0.2 build v9.0.2rc0 (win64)
Optimize a model with 6903 rows, 3980 columns and 27871 nonzeros
Model fingerprint: 0x3e201be8
Variable types: 72 continuous, 3908 integer (2612 binary)
Coefficient statistics:
  Matrix range     [7e-01, 1e+06]
  Objective range  [1e+00, 1e+00]
  Bounds range     [1e+00, 1e+04]
  RHS range        [1e+00, 1e+06]
Presolve removed 0 rows and 1054 columns
Presolve time: 0.01s

Explored 0 nodes (0 simplex iterations) in 0.01 seconds
Thread count was 1 (of 4 available processors)

Solution count 0

Model is infeasible
Best objective -, best bound -, gap -

IIS computed: 1 constraints, 1 bounds
IIS runtime: 0.00 seconds
Discarded solution information

Gurobi 9.0.2 (win64) logging started Fri Oct 29 14:39:23 2021

Changed value of parameter LogFile to logs\CRVRP_10-3-7-100_1_1.LOG
   Prev: logs\CRVRP_10-3-7-100_1_0.LOG  Default: 
Changed value of parameter Seed to 1317374426
   Prev: 1451316820  Min: 0  Max: 2000000000  Default: 0
Parameter Threads unchanged
   Value: 2  Min: 0  Max: 1024  Default: 0
Parameter TimeLimit unchanged
   Value: 60.0  Min: 0.0  Max: inf  Default: inf
Parameter Symmetry unchanged
   Value: 2  Min: -1  Max: 2  Default: -1
Parameter Cuts unchanged
   Value: 2  Min: -1  Max: 3  Default: -1
Parameter PreDepRow unchanged
   Value: 1  Min: -1  Max: 1  Default: -1
Parameter ScaleFlag unchanged
   Value: 1  Min: -1  Max: 3  Default: -1
Parameter NormAdjust unchanged
   Value: 0  Min: -1  Max: 3  Default: -1
Gurobi Optimizer version 9.0.2 build v9.0.2rc0 (win64)
Optimize a model with 2815 rows, 1796 columns and 12549 nonzeros
Model fingerprint: 0x55f0fe7f
Variable types: 48 continuous, 1748 integer (1172 binary)
Coefficient statistics:
  Matrix range     [7e-01, 1e+06]
  Objective range  [1e+00, 1e+00]
  Bounds range     [1e+00, 1e+04]
  RHS range        [1e+00, 1e+06]
Presolve removed 1874 rows and 1077 columns
Presolve time: 0.07s
Presolved: 941 rows, 719 columns, 6047 nonzeros
Variable types: 21 continuous, 698 integer (580 binary)

Root relaxation: objective 3.560592e+03, 556 iterations, 0.02 seconds

    Nodes    |    Current Node    |     Objective Bounds      |     Work
 Expl Unexpl |  Obj  Depth IntInf | Incumbent    BestBd   Gap | It/Node Time

     0     0 3560.59161    0   54          - 3560.59161      -     -    0s
     0     0 3594.45079    0   91          - 3594.45079      -     -    0s
     0     0 3680.24716    0  101          - 3680.24716      -     -    0s
H    0     0                    8744.5324610 3680.24716  57.9%     -    0s
     0     0 3849.28036    0  105 8744.53246 3849.28036  56.0%     -    0s
     0     0 3849.37505    0  107 8744.53246 3849.37505  56.0%     -    0s
     0     0 3880.00568    0  111 8744.53246 3880.00568  55.6%     -    0s
H    0     0                    8630.7575863 3880.00568  55.0%     -    0s
     0     0 3880.00686    0  111 8630.75759 3880.00686  55.0%     -    0s
     0     0 3888.63471    0  104 8630.75759 3888.63471  54.9%     -    1s
H    0     0                    8277.3982130 3888.63471  53.0%     -    1s
     0     0 3888.64660    0  105 8277.39821 3888.64660  53.0%     -    1s
     0     0 3894.22054    0  114 8277.39821 3894.22054  53.0%     -    1s
     0     0 3894.31115    0  114 8277.39821 3894.31115  53.0%     -    1s
     0     0 3894.44145    0  114 8277.39821 3894.44145  53.0%     -    1s
     0     0 3894.44327    0  111 8277.39821 3894.44327  53.0%     -    1s
     0     0 3895.06097    0  118 8277.39821 3895.06097  52.9%     -    2s
     0     0 3895.06097    0  111 8277.39821 3895.06097  52.9%     -    2s
H    0     0                    6534.2741575 3895.49211  40.4%     -    2s
     0     2 3895.49211    0  109 6534.27416 3895.49211  40.4%     -    2s
H  168   151                    6377.9204674 4178.96255  34.5%  89.0    3s
H  309   273                    6351.1767034 4179.66352  34.2%  69.2    4s
H  319   273                    6310.9505758 4179.66352  33.8%  67.7    4s
   657   519 6263.18688   21   43 6310.95058 4189.05627  33.6%  55.6    5s
H  716   538                    6291.1964144 4189.11391  33.4%  53.1    5s
H  751   566                    6260.7860957 4189.11391  33.1%  52.8    5s
   771   583 4189.11391   12   97 6260.78610 4189.11391  33.1%  57.2   10s
H  820   588                    6260.7860951 4189.11391  33.1%  67.8   11s
  1235   788 4743.97558   29   48 6260.78610 4189.11391  33.1%  80.8   15s
H 2047  1059                    6244.4212647 4189.11391  32.9%  75.7   18s
  2299  1188 4790.06095   39   41 6244.42126 4189.40893  32.9%  77.4   20s
  3576  2092 4995.59844   30   58 6244.42126 4194.16158  32.8%  75.8   25s
  4887  3032 4539.30753   35   49 6244.42126 4195.68757  32.8%  72.6   30s
H 6070  3575                    6190.5682601 4197.14528  32.2%  69.1   33s
  6399  3843 5515.76441   43   39 6190.56826 4197.18483  32.2%  69.0   35s
  7835  4665 4296.10551   44   59 6190.56826 4197.19862  32.2%  66.6   40s
  9003  5371 5885.40275   75   41 6190.56826 4197.19862  32.2%  66.6   45s
 10842  6318 4586.84868   47   46 6190.56826 4197.19862  32.2%  65.8   50s
 12240  7044 4561.69044   45   34 6190.56826 4197.19862  32.2%  66.1   55s
 13331  7535 infeasible   48      6190.56826 4197.19862  32.2%  68.7   60s

Cutting planes:
  Learned: 1
  Gomory: 8
  Cover: 19
  Implied bound: 8
  Projected implied bound: 1
  MIR: 24
  Flow cover: 59
  Zero half: 8
  RLT: 11
  Relax-and-lift: 2

Explored 13467 nodes (930708 simplex iterations) in 60.00 seconds
Thread count was 2 (of 4 available processors)

Solution count 10: 6190.57 6244.42 6260.79 ... 8277.4

Time limit reached
Best objective 6.190568260071e+03, best bound 4.197198621592e+03, gap 32.2001%
Discarded solution information
